p edge 94 411
e 1 2
e 1 3
e 1 20
e 1 25
e 1 30
e 1 35
e 1 37
e 1 38
e 1 47
e 1 59
e 1 69
e 1 78
e 1 88
e 1 93
e 1 94
e 2 4
e 2 5
e 2 13
e 2 31
e 2 33
e 2 46
e 2 49
e 2 52
e 2 53
e 2 57
e 2 65
e 2 75
e 2 93
e 3 4
e 3 11
e 3 12
e 3 17
e 3 21
e 3 32
e 3 47
e 3 64
e 3 65
e 3 82
e 3 92
e 4 10
e 4 25
e 4 35
e 4 40
e 5 28
e 5 30
e 5 34
e 5 40
e 5 44
e 5 60
e 5 70
e 5 71
e 5 84
e 5 86
e 6 13
e 6 26
e 6 28
e 6 41
e 6 44
e 6 45
e 6 51
e 6 53
e 6 55
e 6 64
e 6 94
e 7 20
e 7 35
e 7 65
e 7 68
e 8 16
e 8 27
e 8 38
e 8 41
e 8 45
e 8 74
e 8 94
e 9 29
e 9 39
e 9 46
e 9 63
e 9 73
e 9 81
e 9 90
e 9 92
e 10 22
e 10 25
e 10 36
e 10 71
e 10 73
e 10 79
e 11 25
e 11 36
e 11 46
e 11 61
e 11 70
e 11 74
e 11 78
e 11 82
e 12 17
e 12 20
e 12 22
e 12 24
e 12 37
e 12 38
e 12 52
e 12 54
e 12 60
e 12 61
e 12 64
e 12 66
e 12 76
e 12 81
e 12 92
e 13 16
e 13 22
e 13 29
e 13 39
e 13 48
e 13 83
e 13 86
e 14 27
e 14 39
e 14 57
e 14 75
e 14 91
e 15 27
e 15 41
e 15 49
e 15 56
e 16 28
e 16 57
e 16 76
e 16 82
e 16 84
e 16 86
e 16 90
e 16 93
e 17 28
e 17 29
e 17 30
e 17 32
e 17 35
e 17 44
e 17 63
e 17 77
e 18 20
e 18 30
e 18 31
e 18 46
e 18 52
e 18 54
e 18 59
e 18 66
e 18 67
e 18 72
e 18 79
e 18 85
e 18 94
e 19 69
e 19 78
e 20 41
e 20 44
e 20 46
e 20 49
e 20 75
e 20 88
e 21 38
e 21 65
e 21 82
e 21 86
e 21 89
e 22 23
e 22 39
e 22 42
e 22 56
e 22 63
e 22 69
e 22 77
e 22 80
e 23 25
e 23 26
e 23 28
e 23 38
e 23 39
e 23 42
e 23 44
e 23 47
e 23 60
e 23 64
e 24 25
e 24 26
e 24 31
e 24 40
e 24 42
e 24 44
e 24 48
e 24 51
e 24 57
e 24 59
e 24 65
e 24 71
e 24 72
e 24 73
e 24 76
e 24 83
e 24 92
e 25 56
e 25 59
e 25 80
e 25 86
e 25 88
e 26 35
e 26 37
e 26 53
e 26 54
e 26 60
e 26 79
e 27 28
e 27 34
e 27 35
e 27 39
e 27 69
e 27 71
e 27 90
e 27 91
e 27 94
e 28 40
e 28 47
e 28 59
e 28 66
e 28 67
e 28 85
e 28 89
e 29 49
e 29 64
e 29 69
e 29 77
e 29 89
e 30 36
e 30 50
e 30 51
e 30 57
e 30 60
e 30 62
e 30 67
e 30 71
e 30 74
e 30 85
e 31 33
e 31 48
e 31 51
e 31 89
e 32 38
e 32 44
e 32 55
e 32 71
e 32 81
e 32 87
e 32 93
e 33 36
e 33 50
e 33 63
e 33 71
e 33 91
e 34 35
e 34 38
e 34 48
e 34 49
e 34 57
e 34 72
e 34 74
e 34 81
e 34 84
e 35 44
e 35 70
e 35 78
e 35 90
e 36 91
e 38 40
e 38 44
e 38 63
e 38 76
e 38 84
e 39 59
e 39 66
e 39 69
e 39 77
e 40 69
e 40 82
e 41 43
e 41 48
e 41 76
e 41 80
e 41 82
e 42 47
e 42 57
e 42 62
e 42 65
e 43 58
e 43 62
e 44 68
e 44 75
e 44 88
e 44 91
e 44 93
e 44 94
e 45 74
e 45 75
e 45 76
e 45 81
e 45 88
e 46 48
e 46 52
e 46 55
e 47 51
e 47 55
e 47 61
e 47 74
e 47 89
e 48 52
e 48 55
e 48 58
e 48 60
e 49 53
e 49 72
e 49 87
e 49 88
e 49 90
e 49 92
e 50 54
e 50 62
e 50 81
e 51 63
e 51 66
e 51 67
e 51 78
e 52 74
e 52 75
e 52 84
e 52 86
e 53 79
e 54 62
e 54 63
e 54 66
e 54 88
e 55 57
e 55 65
e 55 79
e 56 69
e 57 67
e 58 76
e 58 80
e 58 81
e 58 82
e 58 84
e 59 68
e 59 72
e 59 75
e 59 76
e 59 85
e 59 94
e 60 66
e 60 88
e 60 89
e 61 66
e 61 67
e 61 83
e 61 85
e 61 90
e 62 85
e 62 92
e 63 70
e 63 77
e 63 93
e 64 79
e 64 88
e 65 69
e 65 78
e 65 92
e 66 75
e 66 83
e 67 76
e 67 82
e 67 88
e 67 91
e 68 70
e 68 73
e 68 74
e 68 78
e 69 81
e 69 91
e 70 89
e 71 84
e 71 92
e 72 74
e 72 87
e 75 94
e 76 79
e 78 89
e 79 81
e 79 85
e 79 87
e 79 94
e 80 83
e 80 84
e 80 92
e 81 91
e 82 92
e 85 86
e 85 93
e 86 94
e 87 94
